NAME : XML100_3361_07
DIMENSION : 101
NB_CLUSTERS : 5
CLUSTERING_ALG : KMedoids
CLUSTERING_PARAMS : k(4)
CLUSTERS
1 0
2 7 21 24 37 39 41 45 47 54 61 62 63 72 73 95 98
3 1 2 6 17 20 32 43 49 51 56 57 60 68 84 89
4 3 5 8 11 15 16 23 25 27 30 31 33 34 38 44 46 65 66 69 71 75 77 82 83 86 87 93 94 99
5 4 9 10 12 13 14 18 19 22 26 28 29 35 36 40 42 48 50 52 53 55 58 59 64 67 70 74 76 78 79 80 81 85 88 90 91 92 96 97 100
EOF